num_bands =   1056   #num_bands = NBANDS of INCAR >= num_wann
num_wann =  610     #  number of wannier bands  
#exclude_bands = 446
dis_win_min   = -5.93d0
dis_win_max   = 4.07d0
dis_froz_min  =  -1.5d0      # energy window
dis_froz_max  =  -0.43d0
dis_num_iter  =  400
dis_conv_tol  = 1.0d-9
num_iter      =  0
iprint        =  2
#write_hr      = .true.
hr_plot = .true.

!spin  
spinors = .true.

!projections   
begin projections
Bi : px; py; pz
Co : dz2; dxz; dyz; dx2-y2; dxy
end projections





begin unit_cell_cart
    22.9258003     0.0000000     0.0000000
   -11.4629002    19.8543255     0.0000000
     0.0000000     0.0000000    25.6744995
end unit_cell_cart

begin atoms_cart
Bi       2.2924654     1.3236879     1.6341818
Bi       0.0035339     2.6471984     5.6453087
Bi       0.0001146     2.6471773     0.0000000
Bi      11.4556058    19.8512376     4.0271265
Bi       6.8776256     1.3236879     1.6341818
Bi       4.5926040     2.6573551     5.6545190
Bi       4.5852744     2.6471773     0.0000000
Bi       4.5790950     0.0097775     4.0274413
Bi      11.4627860     1.3236879     1.6341818
Bi       9.1658547     2.6556468     5.6520798
Bi       9.1704349     2.6471773     0.0000000
Bi       9.1760265     0.0076526     4.0260889
Bi      16.0479458     1.3236879     1.6341818
Bi      13.7513964     2.6479707     5.6446672
Bi      13.7555954     2.6471773     0.0000000
Bi       2.3019338    19.8514693     4.0268588
Bi      20.6331056     1.3236879     1.6341818
Bi      18.3403871     2.6445135     5.6449058
Bi      18.3407551     2.6471773     0.0000000
Bi       6.8774164    19.8414104     4.0406227
Bi      -0.0001145     5.2945528     1.6341818
Bi      -2.2841790     6.6251850     5.6459362
Bi      -2.2924654     6.6180424     0.0000000
Bi      -2.2904216     3.9733257     4.0302430
Bi       4.5850457     5.2945528     1.6341818
Bi       2.3223956     6.6453643     5.6959668
Bi       2.2926944     6.6180424     0.0000000
Bi       2.2989126     4.0021454     4.0523887
Bi       9.1702062     5.2945528     1.6341818
Bi       6.8773018     6.6328523     5.5765428
Bi       6.8778548     6.6180424     0.0000000
Bi       6.8787444     3.9593087     4.0124589
Bi      13.7553659     5.2945528     1.6341818
Bi      11.4317937     6.6462387     5.6990886
Bi      11.4630153     6.6180424     0.0000000
Bi      11.4576097     4.0043957     4.0509257
Bi      18.3405257     5.2945528     1.6341818
Bi      16.0381854     6.6268091     5.6460402
Bi      16.0481751     6.6180424     0.0000000
Bi      16.0459020     3.9746241     4.0307529
Bi      -2.2926947     9.2654182     1.6341818
Bi      -4.5860061    10.5943085     5.6368876
Bi      -4.5850457    10.5889079     0.0000000
Bi      18.3404232     7.9418478     4.0294113
Bi       2.2924654     9.2654182     1.6341818
Bi       0.0152612    10.5900042     5.6284021
Bi       0.0001141    10.5889079     0.0000000
Bi       0.0268097     7.9283036     4.0347402
Bi       6.8776259     9.2654182     1.6341818
Bi       4.6468635    10.5942627     5.6129237
Bi       4.5852746    10.5889079     0.0000000
Bi       4.5678635     7.9488041     3.9966964
Bi      11.4627857     9.2654182     1.6341818
Bi       9.0950675    10.5949926     5.6237628
Bi       9.1704350    10.5889079     0.0000000
Bi       9.1866438     7.9524720     4.0006501
Bi      16.0479455     9.2654182     1.6341818
Bi      13.7339362    10.5909625     5.6289701
Bi      13.7555948    10.5889079     0.0000000
Bi      13.7258434     7.9295883     4.0356225
Bi      -4.5852749    13.2362836     1.6341818
Bi      -6.8852731    14.5535930     5.6429496
Bi      -6.8776256    14.5597727     0.0000000
Bi      16.0395342    11.9099165     4.0164534
Bi      -0.0001148    13.2362836     1.6341818
Bi      -2.2849865    14.5524474     5.6422563
Bi      -2.2924658    14.5597727     0.0000000
Bi      -2.2874650    11.9093956     4.0143763
Bi       4.5850457    13.2362836     1.6341818
Bi       2.3216742    14.5358819     5.7001440
Bi       2.2926947    14.5597727     0.0000000
Bi       2.3150614    11.9201653     4.0290394
Bi       9.1702055    13.2362836     1.6341818
Bi       6.8787953    14.5302047     5.5699724
Bi       6.8778552    14.5597727     0.0000000
Bi       6.8752737    11.9077493     3.9336832
Bi      13.7553653    13.2362836     1.6341818
Bi      11.4340983    14.5343315     5.7037402
Bi      11.4630149    14.5597727     0.0000000
Bi      11.4313504    11.9188154     4.0326925
Bi      -6.8778548    17.2071485     1.6341818
Bi      -9.1743440    18.5266875     5.6416940
Bi      -9.1702055    18.5306376     0.0000000
Bi      13.7188748    15.8606109     4.0508412
Bi      -2.2926947    17.2071485     1.6341818
Bi      -4.5853158    18.5338678     5.6366728
Bi      -4.5850457    18.5306376     0.0000000
Bi      -4.5851189    15.8791180     4.0281070
Bi       2.2924658    17.2071485     1.6341818
Bi       0.0048831    18.5280542     5.6404685
Bi       0.0001148    18.5306376     0.0000000
Bi       0.0356119    15.8615430     4.0505632
Bi       6.8776256    17.2071485     1.6341818
Bi       4.5817599    18.5141187     5.6573356
Bi       4.5852753    18.5306376     0.0000000
Bi       4.5619785    15.8787756     4.0221471
Bi      11.4627854    17.2071485     1.6341818
Bi       9.1743211    18.5134542     5.6550645
Bi       9.1704350    18.5306376     0.0000000
Bi       9.1966735    15.8769164     4.0215418
C        0.4128087    11.4032045     9.0889054
C        1.6063687    12.1244500     9.0161759
C        0.4133541     9.9927483     9.0993188
C        6.2248890    17.2261661     8.9342431
C        5.5044633    16.0293441     8.9263188
C        2.8007141    11.4013003     8.9606987
C        7.6338137    17.2285792     8.9334234
C        1.6069250     9.2706435     9.0364545
C        6.2294633    14.8351553     8.9188573
C        4.1943981    11.8105995     8.9241141
C        2.8011719     9.9933445     8.9711052
C        5.8232309    13.4390516     8.8993791
C        8.3589568    16.0344559     8.9250355
C        7.6390644    14.8373038     8.9185840
C        4.1952067     9.5839202     8.9411496
C        8.0493567    13.4423720     8.8999927
C        9.6806544    11.8164056     8.9285700
C        5.8260060     7.9582124     8.9322193
C        6.2363597     6.5639777     8.9571133
C        5.5156135     5.3671107     8.9573003
C        8.0527188     7.9608890     8.9279869
C       11.0745236    11.4084694     8.9672624
C        9.6825069     9.5891303     8.9412823
C        7.6453742     6.5658010     8.9534027
C       12.2676103    12.1332848     9.0279014
C        6.2403301     4.1727843     8.9565849
C       11.0759231    10.0003657     8.9745039
C        8.3696362     5.3714888     8.9504482
C        7.6488755     4.1747186     8.9535745
C       13.4619650    11.4132800     9.1032352
C       12.2706965     9.2791858     9.0416748
C       13.4633865    10.0028607     9.1103059
H        8.1832645     3.2227158     8.9605810
H       12.2616834     8.1879695     9.0515545
H       14.4149598     9.4710282     9.1731927
H        9.4608651     5.3832389     8.9448587
H       14.4126526    11.9473639     9.1603706
H        5.7090952     3.2189214     8.9636546
H       -0.5387903    11.9361248     9.1424702
H        1.6164129    13.2156738     9.0164323
H        9.4501761    16.0270769     8.9242601
H        4.4244026     5.3749837     8.9557946
H        5.6906847    18.1782346     8.9496703
H        4.4132485    16.0173857     8.9263326
H       -0.5376181     9.4596069     9.1612089
H        8.1646664    18.1825745     8.9494359
H        1.6173365     8.1794234     9.0496212
H       12.2558764    13.2245125     9.0300669
N        5.0299261    10.6977124     8.9240377
N        4.5504108    13.0829133     8.8991475
N        6.9374459    12.6068951     8.8900765
N        4.5527673     8.3117209     8.9328374
N        9.3229025    13.0883275     8.9017038
N        6.9386641     8.7929386     8.9118664
N        8.8468688    10.7019481     8.9268997
N        9.3254737     8.3167901     8.9277194
Co       6.9390961    10.6979264     8.8757453
end atoms_cart

mp_grid =     3     3     1

begin kpoints
      0.000000000000      0.000000000000      0.000000000000
      0.333333333333     -0.000000000000      0.000000000000
     -0.333333333333      0.000000000000      0.000000000000
      0.000000000000      0.333333333333      0.000000000000
      0.333333333333      0.333333333333      0.000000000000
     -0.333333333333      0.333333333333      0.000000000000
      0.000000000000     -0.333333333333      0.000000000000
      0.333333333333     -0.333333333333      0.000000000000
     -0.333333333333     -0.333333333333      0.000000000000
end kpoints

bands_plot = .true.
bands_num_points = 100
begin kpoint_path
 M  0.5000000000   0.0000000000   0.0000000000    G  0.0000000000   0.0000000000   0.0000000000 
 G  0.0000000000   0.0000000000   0.0000000000    K  0.3333333333   0.3333333333   0.0000000000
 K  0.3333333333   0.3333333333   0.0000000000    M  0.5000000000   0.0000000000   0.0000000000 
end kpoint_path
