num_bands =   768   #num_bands = NBANDS of INCAR >= num_wann
num_wann =  748     #  number of wannier bands  
#exclude_bands = 446
dis_win_min   = -22.20d0  # Ef = -0.5702 
dis_win_max   = 5.87d0
dis_froz_min  =  -22.18d0      # energy window
dis_froz_max  =   5.58d0
dis_num_iter  =  3000
dis_conv_tol  = 1.0d-10
num_iter      =  200
iprint        =  2
#write_hr      = .true.
hr_plot = .true.

!spin  
spinors = .true.

!projections   
begin projections
Bi : s; px; py; pz
C  : s; px; py; pz
H  : s
N  : s; px; py; pz
Co : s; dz2; dxz; dyz; dx2-y2; dxy
end projections




begin unit_cell_cart
    15.8835001     0.0000000     0.0000000
    -7.9417500    13.7555146     0.0000000
     0.0000000     0.0000000    25.6744995
end unit_cell_cart

begin atoms_cart
Bi      -3.2825639    10.2708302     1.6341819
Bi       8.6300616    12.5633230     1.6341819
Bi       4.6591067     1.1004410     1.6341819
Bi       0.6883119     3.3930717     1.6341819
Bi      12.6009369     5.6855660     1.6341819
Bi       8.6300621     3.3930726     1.6341819
Bi       4.6591864     5.6855669     1.6341819
Bi       0.6882315     7.9781990     1.6341819
Bi       8.6299810     7.9781990     1.6341819
Bi       4.6591859    10.2708311     1.6341819
Bi       0.6883116    12.5633230     1.6341819
Bi      12.6008568     1.1004410     1.6341819
Bi      -5.9278312    10.2831917     5.6358299
Bi      -1.9499221    12.5535507     5.6540427
Bi       2.0105677     1.1205714     5.6657772
Bi      13.9241591     3.3835478     5.6434269
Bi       5.9941592     3.4152539     5.5827723
Bi       2.0734389     5.7184920     5.6110368
Bi      -1.9514296     7.9891400     5.6708460
Bi       9.9482861     5.6787801     5.6535411
Bi       5.9446979     7.9656010     5.5866332
Bi       2.0097938    10.2516212     5.5834594
Bi       5.9870462    12.5517950     5.6740298
Bi       9.9532928     1.1119109     5.6543984
Bi       9.9536333    10.2708302     0.0000000
Bi      -1.9589920    12.5633230     0.0000000
Bi       2.0119627     1.1004410     0.0000000
Bi      13.9245087     3.3930726     0.0000000
Bi       5.9827590     3.3930717     0.0000000
Bi       2.0118828     5.6855669     0.0000000
Bi      -1.9589126     7.9781990     0.0000000
Bi       9.9536333     5.6855660     0.0000000
Bi       5.9828377     7.9781990     0.0000000
Bi       2.0118828    10.2708311     0.0000000
Bi       5.9827571    12.5633230     0.0000000
Bi       9.9537134     1.1004410     0.0000000
Bi      -4.5981612     7.9728990     4.0473914
Bi      -4.6018982    12.5864601     4.0388913
Bi      15.2514668     1.0862577     4.0383363
Bi       7.3151298     1.0846884     4.0288720
Bi       3.3305550     3.3875325     4.0105653
Bi      -0.6302433     5.6933165     4.0588756
Bi       7.3275633     5.7002535     3.9924874
Bi       3.3335314     7.9864650     3.9477666
Bi      -0.6568265    10.2655973     4.0106368
Bi       7.3047981    10.2842531     4.0297899
Bi       3.3486171    12.5793467     4.0402169
Bi      11.2744904     3.3955348     4.0236754
C       -2.6002288     5.7859693     9.2191563
C       -1.6645670     6.8227348     9.1560659
C       -2.2102366     4.4353118     9.2037983
C        1.5760317    13.0270510     9.0640240
C        1.1452956    11.6986113     9.0574884
C       -0.3138509     6.4707437     9.0865068
C        2.9422021    13.3653479     9.0417166
C       -0.8633080     4.0806527     9.1318540
C        2.1268816    10.7037354     9.0264826
C        0.9214559     7.2438612     9.0402374
C        0.0690687     5.1163869     9.0800209
C        2.0764084     9.2443237     9.0084229
C        3.9221053    12.3756304     9.0150661
C        3.4912224    11.0487366     9.0082331
C        1.5164278     5.0977230     9.0363388
C        4.2317839     9.8045568     8.9892149
C        6.2272129     8.6532240     9.0093689
C        3.5121367     3.9454632     8.9967232
C        4.2526689     2.7012951     9.0004091
C        3.8221712     1.3738034     9.0027723
C        5.6677184     4.5061369     8.9831314
C        7.6755996     8.6343584     9.0282507
C        6.8230953     6.5066147     8.9997854
C        5.6169019     3.0460985     8.9923792
C        8.6078959     9.6702957     9.0684109
C        4.8018918     0.3834741     8.9870491
C        8.0588226     7.2799382     9.0203638
C        6.5989447     2.0503376     8.9849510
C        6.1681447     0.7219044     8.9772673
C        9.9569149     9.3157892     9.0994043
C        9.4111347     6.9281363     9.0490684
C       10.3482094     7.9650340     9.0863323
H       -1.0429206    13.6708098     8.9607067
H        9.7144671     5.8800731     9.0582247
H       11.4123917     7.7348399     9.1026649
H        7.6589808     2.3111706     8.9744530
H       -5.1606469    10.0924749     9.1397037
H       -3.4290171    13.0862885     8.9843550
H       12.2210703     6.0161037     9.2848635
H       -1.9674733     7.8707256     9.1776361
H        4.9861092    12.6153097     9.0062523
H        2.7583199     1.1345810     9.0226107
H        8.7871818     0.0780212     9.0928316
H        0.0854883    11.4370346     9.0710230
H       12.9082346     3.6580129     9.2517481
H       11.1722593     0.6627332     9.0489559
H       -0.5380185     3.0395517     9.1251202
H        8.2826061    10.7112617     9.0785093
N        2.0160956     6.3887129     9.0195217
N        0.9389453     8.5670881     9.0248623
N        3.3651895     8.7260590     8.9829187
N        2.1922941     3.9636614     9.0136805
N        5.5519152     9.7873879     8.9922323
N        4.3791537     5.0239987     8.9809923
N        5.7275901     7.3617406     8.9994316
N        6.8053465     5.1831608     8.9817181
Co       3.8725653     6.8748717     8.9610433
end atoms_cart

mp_grid =     3     3     1

begin kpoints
      0.000000000000      0.000000000000      0.000000000000
      0.333333333333      0.000000000000      0.000000000000
     -0.333333333333      0.000000000000      0.000000000000
      0.000000000000      0.333333333333      0.000000000000
      0.333333333333      0.333333333333      0.000000000000
     -0.333333333333      0.333333333333      0.000000000000
      0.000000000000     -0.333333333333      0.000000000000
      0.333333333333     -0.333333333333      0.000000000000
     -0.333333333333     -0.333333333333      0.000000000000
end kpoints

bands_plot = .true.
bands_num_points = 100
begin kpoint_path
 M  0.5000000000   0.0000000000   0.0000000000    G  0.0000000000   0.0000000000   0.0000000000
 G  0.0000000000   0.0000000000   0.0000000000    K  0.3333333333   0.3333333333   0.0000000000
 K  0.3333333333   0.3333333333   0.0000000000    M  0.5000000000   0.0000000000   0.0000000000
end kpoint_path
